Instance name : lr210
Authors       : Geir Hasle, Oddvar Kloster
Date          : 13.04.2003 06:54:45
Reference     : Chapter in G. Hasle, K-A Lie, E. Quak (eds): Geometric Modelling, Numerical Simulation, and Optimization. ISBN 978-3-540-68782-5, Springer 2007.
Solution
Route  1 : 95 92 98 42 15 75 23 67 39 12 76 3 79 29 78 81 9 51 20 10 63 90 32 66 35 34 68 80 26 13 97 37 100 93 17 5 60 89
Route  2 : 27 52 7 19 36 47 48 82 18 83 45 86 38 44 16 59 99 96 6 94 87 53 40 21 73 72 22 41 74 56 101 4 55 25 54 24 77 50 1 70
Route  3 : 28 33 71 65 30 69 31 88 62 11 64 102 49 46 8 84 61 85 91 14 43 57 2 58
